Minimize
  0.1666666666666667 y_0 + 0.125 y_1 + y_2 + 0.1428571428571428 y_3
   + 0.1 y_4 + 0.0526315789473684 y_5 + 0.0555555555555556 y_6
   + 0.0714285714285714 y_7 + 0.3333333333333333 y_8 + 0.125 y_9
   - 2.172472848788638 Constant
Subject To
 c_0: y_4 = 1
 c_1_0: y_0 + y_3 + y_8 >= 1
 c_1_1: y_1 + y_3 + y_9 >= 1
 c_1_2: y_2 + y_8 >= 1
 c_1_3: y_0 + y_1 + y_3 + y_4 + y_8 >= 1
 c_1_4: y_3 + y_4 >= 1
 c_1_5: y_5 + y_6 >= 1
 c_1_6: y_5 + y_6 >= 1
 c_1_7: y_7 >= 1
 c_1_8: y_0 + y_2 + y_3 + y_8 >= 1
 c_1_9: y_1 + y_9 >= 1
Bounds
 Constant = 1
Binaries
 y_0 y_1 y_2 y_3 y_4 y_5 y_6 y_7 y_8 y_9
End
